Running HiGHS 1.8.1 (git hash: 4a7f24a): Copyright (c) 2024 HiGHS under MIT licence terms
Reading model file  106Vertices.lp  returns a status of  HighsStatus.kOk
Coefficient ranges:
  Matrix [1e-03, 1e+03]
  Cost   [1e+00, 1e+00]
  Bound  [1e+00, 2e+09]
  RHS    [1e+00, 1e+03]
Presolving model
1644 rows, 1687 cols, 6809 nonzeros  0s
932 rows, 992 cols, 4951 nonzeros  0s
496 rows, 457 cols, 2287 nonzeros  0s
429 rows, 387 cols, 1734 nonzeros  0s

Solving MIP model with:
   429 rows
   387 cols (49 binary, 0 integer, 7 implied int., 331 continuous)
   1734 nonzeros
MIP-Timing:       0.027 - starting analytic centre calculation

Src: B => Branching; C => Central rounding; F => Feasibility pump; H => Heuristic; L => Sub-MIP;
     P => Empty MIP; R => Randomized rounding; S => Solve LP; T => Evaluate node; U => Unbounded;
     z => Trivial zero; l => Trivial lower; u => Trivial upper; p => Trivial point

        Nodes      |    B&B Tree     |            Objective Bounds              |  Dynamic Constraints |       Work      
Src  Proc. InQueue |  Leaves   Expl. | BestBound       BestSol              Gap |   Cuts   InLp Confl. | LpIters     Time

         0       0         0   0.00%   -0.865607066    inf                  inf        0      0      0         0     0.0s
         0       0         0   0.00%   -0.2689797077   inf                  inf        0      0      5       433     0.0s

Symmetry detection completed in 0.0s
No symmetry present

 T     174      13        62  33.96%   -0.2304482018   -0.083287454     176.69%     1220    125    636     29939     2.8s
 T     195      14        71  34.01%   -0.2304482018   -0.1191435825     93.42%     1227    125    673     30246     2.8s
       528       0       215 100.00%   -0.1191435825   -0.1191435825      0.00%     1585     67   1464     40969     3.9s

Solving report
  Model             106Vertices
  Status            Optimal
  Primal bound      -0.1191435825
  Dual bound        -0.1191435825
  Gap               0% (tolerance: 0.01%)
  P-D integral      0.86732719221
  Solution status   feasible
                    -0.1191435825 (objective)
                    0 (bound viol.)
                    0 (int. viol.)
                    0 (row viol.)
  Timing            3.88 (total)
                    0.00 (presolve)
                    0.00 (solve)
                    0.00 (postsolve)
  Max sub-MIP depth 3
  Nodes             528
  Repair LPs        0 (0 feasible; 0 iterations)
  LP iterations     40969 (total)
                    16235 (strong br.)
                    2038 (separation)
                    8640 (heuristics)
Model status =  Optimal

Optimal objective =  -0.11914358250003662
Iteration count =  40969
Primal solution status =  Feasible
Dual solution status =  None
Basis validity =  Not valid
Writing the solution to ./106Vertices.sol
